\ENCODING=ISO-8859-1
\Problem name: ilog.cplex

Maximize
 obj: 778 x(0)#0 + 748 x(1)#1 + 567 x(2)#2 + 769 x(3)#3 + 412 x(4)#4
      + 605 x(5)#5 + 530 x(6)#6 + 963 x(7)#7 + 437 x(8)#8 + 821 x(9)#9
      + 772 x(10)#10 + 937 x(11)#11 + 638 x(12)#12 + 726 x(13)#13
      + 369 x(14)#14 + 887 x(15)#15 + 908 x(16)#16 + 433 x(17)#17
      + 989 x(18)#18 + 728 x(19)#19 + 863 x(20)#20 + 906 x(21)#21
      + 587 x(22)#22 + 544 x(23)#23 + 666 x(24)#24 + 878 x(25)#25
      + 814 x(26)#26 + 697 x(27)#27 + 867 x(28)#28 + 803 x(29)#29
      + 842 x(30)#30 + 936 x(31)#31 + 834 x(32)#32 + 1032 x(33)#33
      + 779 x(34)#34 + 840 x(35)#35 + 960 x(36)#36 + 845 x(37)#37
      + 705 x(38)#38 + 783 x(39)#39 + 618 x(40)#40 + 993 x(41)#41
      + 793 x(42)#42 + 1022 x(43)#43 + 891 x(44)#44 + 592 x(45)#45
      + 730 x(46)#46 + 532 x(47)#47 + 698 x(48)#48 + 575 x(49)#49
      + 512 x(50)#50 + 741 x(51)#51 + 647 x(52)#52 + 1042 x(53)#53
      + 422 x(54)#54 + 846 x(55)#55 + 962 x(56)#56 + 754 x(57)#57
      + 766 x(58)#58 + 867 x(59)#59 + 733 x(60)#60 + 856 x(61)#61
      + 957 x(62)#62 + 795 x(63)#63 + 491 x(64)#64 + 697 x(65)#65
      + 976 x(66)#66 + 471 x(67)#67 + 599 x(68)#68 + 763 x(69)#69
      + 863 x(70)#70 + 912 x(71)#71 + 942 x(72)#72 + 650 x(73)#73
      + 710 x(74)#74 + 638 x(75)#75 + 493 x(76)#76 + 540 x(77)#77
      + 818 x(78)#78 + 872 x(79)#79 + 803 x(80)#80 + 833 x(81)#81
      + 906 x(82)#82 + 774 x(83)#83 + 468 x(84)#84 + 592 x(85)#85
      + 617 x(86)#86 + 895 x(87)#87 + 747 x(88)#88 + 547 x(89)#89
      + 670 x(90)#90 + 841 x(91)#91 + 394 x(92)#92 + 586 x(93)#93
      + 495 x(94)#94 + 545 x(95)#95 + 711 x(96)#96 + 411 x(97)#97
      + 562 x(98)#98 + 589 x(99)#99
Subject To
 c1:  823 x(0)#0 + 297 x(1)#1 + 543 x(2)#2 + 954 x(3)#3 + 358 x(4)#4
      + 187 x(5)#5 + 465 x(6)#6 + 477 x(7)#7 + 124 x(8)#8 + 709 x(9)#9
      + 797 x(10)#10 + 685 x(11)#11 + 37 x(12)#12 + 362 x(13)#13 + 60 x(14)#14
      + 126 x(15)#15 + 834 x(16)#16 + 313 x(17)#17 + 912 x(18)#18 + 22 x(19)#19
      + 768 x(20)#20 + 343 x(21)#21 + 547 x(22)#22 + 288 x(23)#23
      + 162 x(24)#24 + 426 x(25)#25 + 167 x(26)#26 + 693 x(27)#27
      + 124 x(28)#28 + 262 x(29)#29 + 994 x(30)#30 + 761 x(31)#31 + 95 x(32)#32
      + 856 x(33)#33 + 253 x(34)#34 + 939 x(35)#35 + 411 x(36)#36
      + 844 x(37)#37 + 464 x(38)#38 + 203 x(39)#39 + 839 x(40)#40
      + 814 x(41)#41 + 695 x(42)#42 + 808 x(43)#43 + 490 x(44)#44
      + 954 x(45)#45 + 731 x(46)#46 + 217 x(47)#47 + 943 x(48)#48 + 21 x(49)#49
      + 569 x(50)#50 + 255 x(51)#51 + 498 x(52)#52 + 816 x(53)#53
      + 522 x(54)#54 + 332 x(55)#55 + 862 x(56)#56 + 335 x(57)#57
      + 800 x(58)#58 + 151 x(59)#59 + 177 x(60)#60 + 286 x(61)#61
      + 971 x(62)#62 + 42 x(63)#63 + 262 x(64)#64 + 454 x(65)#65 + 150 x(66)#66
      + 514 x(67)#67 + 169 x(68)#68 + 186 x(69)#69 + 45 x(70)#70 + 140 x(71)#71
      + 400 x(72)#72 + 957 x(73)#73 + 99 x(74)#74 + 167 x(75)#75 + 454 x(76)#76
      + 391 x(77)#77 + 805 x(78)#78 + 942 x(79)#79 + 927 x(80)#80
      + 420 x(81)#81 + 400 x(82)#82 + 81 x(83)#83 + 315 x(84)#84 + 890 x(85)#85
      + 35 x(86)#86 + 736 x(87)#87 + 914 x(88)#88 + 822 x(89)#89 + 469 x(90)#90
      + 1000 x(91)#91 + 27 x(92)#92 + 294 x(93)#93 + 380 x(94)#94
      + 441 x(95)#95 + 397 x(96)#96 + 308 x(97)#97 + 354 x(98)#98
      + 893 x(99)#99 <= 12013
 c2:  794 x(0)#0 + 167 x(1)#1 + 88 x(2)#2 + 929 x(3)#3 + 206 x(4)#4
      + 777 x(5)#5 + 327 x(6)#6 + 392 x(7)#7 + 171 x(8)#8 + 881 x(9)#9
      + 883 x(10)#10 + 492 x(11)#11 + 162 x(12)#12 + 774 x(13)#13
      + 198 x(14)#14 + 52 x(15)#15 + 721 x(16)#16 + 144 x(17)#17 + 518 x(18)#18
      + 516 x(19)#19 + 408 x(20)#20 + 190 x(21)#21 + 86 x(22)#22 + 360 x(23)#23
      + 409 x(24)#24 + 502 x(25)#25 + 757 x(26)#26 + 214 x(27)#27
      + 875 x(28)#28 + 569 x(29)#29 + 865 x(30)#30 + 270 x(31)#31 + 61 x(32)#32
      + 523 x(33)#33 + 273 x(34)#34 + 802 x(35)#35 + 266 x(36)#36 + 11 x(37)#37
      + 812 x(38)#38 + 325 x(39)#39 + 873 x(40)#40 + 414 x(41)#41
      + 597 x(42)#42 + 421 x(43)#43 + 561 x(44)#44 + 52 x(45)#45 + 707 x(46)#46
      + 232 x(47)#47 + 606 x(48)#48 + 935 x(49)#49 + 363 x(50)#50
      + 352 x(51)#51 + 735 x(52)#52 + 679 x(53)#53 + 908 x(54)#54
      + 559 x(55)#55 + 748 x(56)#56 + 448 x(57)#57 + 366 x(58)#58
      + 441 x(59)#59 + 912 x(60)#60 + 254 x(61)#61 + 866 x(62)#62
      + 811 x(63)#63 + 506 x(64)#64 + 469 x(65)#65 + 775 x(66)#66
      + 583 x(67)#67 + 658 x(68)#68 + 330 x(69)#69 + 938 x(70)#70
      + 780 x(71)#71 + 174 x(72)#72 + 841 x(73)#73 + 378 x(74)#74
      + 104 x(75)#75 + 106 x(76)#76 + 621 x(77)#77 + 247 x(78)#78
      + 429 x(79)#79 + 82 x(80)#80 + 410 x(81)#81 + 297 x(82)#82 + 748 x(83)#83
      + 127 x(84)#84 + 162 x(85)#85 + 607 x(86)#86 + 901 x(87)#87
      + 922 x(88)#88 + 449 x(89)#89 + 198 x(90)#90 + 561 x(91)#91 + 28 x(92)#92
      + 82 x(93)#93 + 350 x(94)#94 + 429 x(95)#95 + 817 x(96)#96 + 77 x(97)#97
      + 267 x(98)#98 + 224 x(99)#99 <= 11822
 c3:  1000 x(0)#0 + 343 x(1)#1 + 896 x(2)#2 + 319 x(3)#3 + 451 x(4)#4
      + 952 x(5)#5 + 851 x(6)#6 + 44 x(7)#7 + 623 x(8)#8 + 786 x(9)#9
      + 785 x(10)#10 + 123 x(11)#11 + 411 x(12)#12 + 30 x(13)#13 + 704 x(14)#14
      + 568 x(15)#15 + 656 x(16)#16 + 447 x(17)#17 + 967 x(18)#18
      + 433 x(19)#19 + 733 x(20)#20 + 379 x(21)#21 + 582 x(22)#22
      + 376 x(23)#23 + 583 x(24)#24 + 173 x(25)#25 + 28 x(26)#26 + 245 x(27)#27
      + 370 x(28)#28 + 436 x(29)#29 + 452 x(30)#30 + 501 x(31)#31
      + 515 x(32)#32 + 57 x(33)#33 + 295 x(34)#34 + 476 x(35)#35 + 465 x(36)#36
      + 395 x(37)#37 + 672 x(38)#38 + 571 x(39)#39 + 239 x(40)#40
      + 482 x(41)#41 + 706 x(42)#42 + 306 x(43)#43 + 386 x(44)#44
      + 277 x(45)#45 + 306 x(46)#46 + 268 x(47)#47 + 163 x(48)#48
      + 972 x(49)#49 + 651 x(50)#50 + 181 x(51)#51 + 436 x(52)#52
      + 357 x(53)#53 + 269 x(54)#54 + 508 x(55)#55 + 242 x(56)#56
      + 816 x(57)#57 + 422 x(58)#58 + 353 x(59)#59 + 766 x(60)#60
      + 417 x(61)#61 + 764 x(62)#62 + 549 x(63)#63 + 731 x(64)#64
      + 112 x(65)#65 + 391 x(66)#66 + 228 x(67)#67 + 967 x(68)#68
      + 834 x(69)#69 + 297 x(70)#70 + 371 x(71)#71 + 154 x(72)#72
      + 350 x(73)#73 + 738 x(74)#74 + 713 x(75)#75 + 416 x(76)#76
      + 647 x(77)#77 + 317 x(78)#78 + 664 x(79)#79 + 94 x(80)#80 + 884 x(81)#81
      + 972 x(82)#82 + 608 x(83)#83 + 743 x(84)#84 + 592 x(85)#85
      + 581 x(86)#86 + 479 x(87)#87 + 739 x(88)#88 + 698 x(89)#89
      + 233 x(90)#90 + 594 x(91)#91 + 60 x(92)#92 + 677 x(93)#93 + 433 x(94)#94
      + 866 x(95)#95 + 248 x(96)#96 + 621 x(97)#97 + 783 x(98)#98 + 63 x(99)#99
      <= 12357
 c4:  861 x(0)#0 + 950 x(1)#1 + 605 x(2)#2 + 262 x(3)#3 + 408 x(4)#4
      + 125 x(5)#5 + 256 x(6)#6 + 522 x(7)#7 + 132 x(8)#8 + 955 x(9)#9
      + 914 x(10)#10 + 395 x(11)#11 + 203 x(12)#12 + 724 x(13)#13
      + 122 x(14)#14 + 689 x(15)#15 + 822 x(16)#16 + 308 x(17)#17
      + 564 x(18)#18 + 863 x(19)#19 + 116 x(20)#20 + 676 x(21)#21
      + 744 x(22)#22 + 248 x(23)#23 + 228 x(24)#24 + 191 x(25)#25
      + 651 x(26)#26 + 539 x(27)#27 + 739 x(28)#28 + 560 x(29)#29
      + 488 x(30)#30 + 677 x(31)#31 + 811 x(32)#32 + 279 x(33)#33
      + 581 x(34)#34 + 114 x(35)#35 + 578 x(36)#36 + 551 x(37)#37
      + 749 x(38)#38 + 884 x(39)#39 + 390 x(40)#40 + 569 x(41)#41
      + 840 x(42)#42 + 767 x(43)#43 + 849 x(44)#44 + 438 x(45)#45
      + 405 x(46)#46 + 378 x(47)#47 + 993 x(48)#48 + 743 x(49)#49
      + 299 x(50)#50 + 134 x(51)#51 + 20 x(52)#52 + 541 x(53)#53 + 185 x(54)#54
      + 107 x(55)#55 + 934 x(56)#56 + 416 x(57)#57 + 644 x(58)#58
      + 479 x(59)#59 + 178 x(60)#60 + 607 x(61)#61 + 402 x(62)#62
      + 278 x(63)#63 + 98 x(64)#64 + 836 x(65)#65 + 632 x(66)#66 + 465 x(67)#67
      + 79 x(68)#68 + 701 x(69)#69 + 889 x(70)#70 + 230 x(71)#71 + 430 x(72)#72
      + 338 x(73)#73 + 568 x(74)#74 + 371 x(75)#75 + 161 x(76)#76
      + 138 x(77)#77 + 540 x(78)#78 + 833 x(79)#79 + 569 x(80)#80
      + 459 x(81)#81 + 825 x(82)#82 + 50 x(83)#83 + 172 x(84)#84 + 486 x(85)#85
      + 134 x(86)#86 + 171 x(87)#87 + 298 x(88)#88 + 895 x(89)#89
      + 898 x(90)#90 + 32 x(91)#91 + 383 x(92)#92 + 845 x(93)#93 + 532 x(94)#94
      + 746 x(95)#95 + 761 x(96)#96 + 421 x(97)#97 + 967 x(98)#98
      + 369 x(99)#99 <= 12501
 c5:  398 x(0)#0 + 118 x(1)#1 + 923 x(2)#2 + 898 x(3)#3 + 253 x(4)#4
      + 733 x(5)#5 + 834 x(6)#6 + 694 x(7)#7 + 105 x(8)#8 + 103 x(9)#9
      + 127 x(10)#10 + 960 x(11)#11 + 780 x(12)#12 + 568 x(13)#13
      + 751 x(14)#14 + 804 x(15)#15 + 290 x(16)#16 + 334 x(17)#17
      + 276 x(18)#18 + 952 x(19)#19 + 897 x(20)#20 + 724 x(21)#21
      + 397 x(22)#22 + 60 x(23)#23 + 241 x(24)#24 + 983 x(25)#25 + 768 x(26)#26
      + 473 x(27)#27 + 991 x(28)#28 + 691 x(29)#29 + 290 x(30)#30
      + 315 x(31)#31 + 97 x(32)#32 + 979 x(33)#33 + 516 x(34)#34 + 734 x(35)#35
      + 241 x(36)#36 + 171 x(37)#37 + 870 x(38)#38 + 281 x(39)#39
      + 723 x(40)#40 + 549 x(41)#41 + 112 x(42)#42 + 869 x(43)#43
      + 316 x(44)#44 + 429 x(45)#45 + 413 x(46)#46 + 108 x(47)#47 + 8 x(48)#48
      + 149 x(49)#49 + 486 x(50)#50 + 634 x(51)#51 + 994 x(52)#52
      + 480 x(53)#53 + 391 x(54)#54 + 557 x(55)#55 + 712 x(56)#56
      + 440 x(57)#57 + 179 x(58)#58 + 59 x(59)#59 + 206 x(60)#60 + 245 x(61)#61
      + 337 x(62)#62 + 79 x(63)#63 + 40 x(64)#64 + 395 x(65)#65 + 444 x(66)#66
      + 99 x(67)#67 + 540 x(68)#68 + 691 x(69)#69 + 939 x(70)#70 + 573 x(71)#71
      + 893 x(72)#72 + 325 x(73)#73 + 85 x(74)#74 + 650 x(75)#75 + 553 x(76)#76
      + 722 x(77)#77 + 874 x(78)#78 + 106 x(79)#79 + 725 x(80)#80
      + 324 x(81)#81 + 978 x(82)#82 + 145 x(83)#83 + 541 x(84)#84 + 58 x(85)#85
      + 390 x(86)#86 + 641 x(87)#87 + 293 x(88)#88 + 29 x(89)#89 + 416 x(90)#90
      + 616 x(91)#91 + 510 x(92)#92 + 308 x(93)#93 + 571 x(94)#94
      + 333 x(95)#95 + 929 x(96)#96 + 111 x(97)#97 + 130 x(98)#98
      + 257 x(99)#99 <= 11832
 c6:  677 x(0)#0 + 581 x(1)#1 + 34 x(2)#2 + 600 x(3)#3 + 33 x(4)#4 + 214 x(5)#5
      + 823 x(6)#6 + 669 x(7)#7 + 785 x(8)#8 + 912 x(9)#9 + 535 x(10)#10
      + 231 x(11)#11 + 145 x(12)#12 + 491 x(13)#13 + 384 x(14)#14
      + 692 x(15)#15 + 946 x(16)#16 + 443 x(17)#17 + 635 x(18)#18
      + 257 x(19)#19 + 854 x(20)#20 + 736 x(21)#21 + 773 x(22)#22
      + 695 x(23)#23 + 693 x(24)#24 + 351 x(25)#25 + 721 x(26)#26
      + 573 x(27)#27 + 774 x(28)#28 + 806 x(29)#29 + 647 x(30)#30
      + 985 x(31)#31 + 173 x(32)#32 + 914 x(33)#33 + 179 x(34)#34
      + 219 x(35)#35 + 398 x(36)#36 + 633 x(37)#37 + 910 x(38)#38
      + 431 x(39)#39 + 69 x(40)#40 + 479 x(41)#41 + 220 x(42)#42 + 40 x(43)#43
      + 116 x(44)#44 + 377 x(45)#45 + 914 x(46)#46 + 621 x(47)#47 + 73 x(48)#48
      + 562 x(49)#49 + 165 x(50)#50 + 173 x(51)#51 + 37 x(52)#52 + 945 x(53)#53
      + 195 x(54)#54 + 826 x(55)#55 + 237 x(56)#56 + 631 x(57)#57
      + 779 x(58)#58 + 655 x(59)#59 + 422 x(60)#60 + 97 x(61)#61 + 411 x(62)#62
      + 569 x(63)#63 + 466 x(64)#64 + 314 x(65)#65 + 893 x(66)#66
      + 183 x(67)#67 + 317 x(68)#68 + 469 x(69)#69 + 113 x(70)#70
      + 488 x(71)#71 + 614 x(72)#72 + 221 x(73)#73 + 321 x(74)#74
      + 688 x(75)#75 + 718 x(76)#76 + 414 x(77)#77 + 726 x(78)#78
      + 555 x(79)#79 + 170 x(80)#80 + 200 x(81)#81 + 749 x(82)#82
      + 590 x(83)#83 + 321 x(84)#84 + 742 x(85)#85 + 506 x(86)#86 + 48 x(87)#87
      + 845 x(88)#88 + 955 x(89)#89 + 232 x(90)#90 + 563 x(91)#91 + 25 x(92)#92
      + 463 x(93)#93 + 254 x(94)#94 + 202 x(95)#95 + 454 x(96)#96
      + 188 x(97)#97 + 961 x(98)#98 + 530 x(99)#99 <= 12166
 c7:  420 x(0)#0 + 939 x(1)#1 + 545 x(2)#2 + 600 x(3)#3 + 315 x(4)#4
      + 957 x(5)#5 + 189 x(6)#6 + 454 x(7)#7 + 408 x(8)#8 + 203 x(9)#9
      + 325 x(10)#10 + 861 x(11)#11 + 782 x(12)#12 + 156 x(13)#13
      + 419 x(14)#14 + 994 x(15)#15 + 26 x(16)#16 + 314 x(17)#17 + 641 x(18)#18
      + 840 x(19)#19 + 140 x(20)#20 + 683 x(21)#21 + 601 x(22)#22
      + 569 x(23)#23 + 39 x(24)#24 + 856 x(25)#25 + 119 x(26)#26 + 356 x(27)#27
      + 951 x(28)#28 + 728 x(29)#29 + 663 x(30)#30 + 733 x(31)#31
      + 413 x(32)#32 + 266 x(33)#33 + 501 x(34)#34 + 735 x(35)#35
      + 524 x(36)#36 + 820 x(37)#37 + 977 x(38)#38 + 674 x(39)#39
      + 945 x(40)#40 + 743 x(41)#41 + 94 x(42)#42 + 581 x(43)#43 + 300 x(44)#44
      + 14 x(45)#45 + 471 x(46)#46 + 234 x(47)#47 + 8 x(48)#48 + 82 x(49)#49
      + 185 x(50)#50 + 660 x(51)#51 + 205 x(52)#52 + 192 x(53)#53
      + 902 x(54)#54 + 609 x(55)#55 + 296 x(56)#56 + 325 x(57)#57
      + 599 x(58)#58 + 711 x(59)#59 + 767 x(60)#60 + 447 x(61)#61
      + 310 x(62)#62 + 784 x(63)#63 + 607 x(64)#64 + 538 x(65)#65
      + 855 x(66)#66 + 605 x(67)#67 + 49 x(68)#68 + 428 x(69)#69 + 332 x(70)#70
      + 348 x(71)#71 + 929 x(72)#72 + 202 x(73)#73 + 67 x(74)#74 + 33 x(75)#75
      + 644 x(76)#76 + 447 x(77)#77 + 696 x(78)#78 + 750 x(79)#79
      + 732 x(80)#80 + 337 x(81)#81 + 601 x(82)#82 + 242 x(83)#83
      + 805 x(84)#84 + 641 x(85)#85 + 646 x(86)#86 + 442 x(87)#87
      + 397 x(88)#88 + 389 x(89)#89 + 397 x(90)#90 + 691 x(91)#91
      + 861 x(92)#92 + 104 x(93)#93 + 943 x(94)#94 + 107 x(95)#95
      + 850 x(96)#96 + 244 x(97)#97 + 661 x(98)#98 + 898 x(99)#99 <= 12680
 c8:  387 x(0)#0 + 21 x(1)#1 + 399 x(2)#2 + 995 x(3)#3 + 728 x(4)#4
      + 917 x(5)#5 + 386 x(6)#6 + 746 x(7)#7 + 350 x(8)#8 + 71 x(9)#9
      + 919 x(10)#10 + 646 x(11)#11 + 197 x(12)#12 + 532 x(13)#13
      + 235 x(14)#14 + 459 x(15)#15 + 166 x(16)#16 + 279 x(17)#17
      + 610 x(18)#18 + 190 x(19)#19 + 12 x(20)#20 + 969 x(21)#21 + 635 x(22)#22
      + 159 x(23)#23 + 186 x(24)#24 + 11 x(25)#25 + 866 x(26)#26 + 645 x(27)#27
      + 294 x(28)#28 + 576 x(29)#29 + 319 x(30)#30 + 278 x(31)#31
      + 720 x(32)#32 + 550 x(33)#33 + 818 x(34)#34 + 569 x(35)#35
      + 854 x(36)#36 + 856 x(37)#37 + 611 x(38)#38 + 689 x(39)#39
      + 715 x(40)#40 + 893 x(41)#41 + 692 x(42)#42 + 545 x(43)#43
      + 475 x(44)#44 + 61 x(45)#45 + 845 x(46)#46 + 768 x(47)#47 + 430 x(48)#48
      + 65 x(49)#49 + 834 x(50)#50 + 564 x(51)#51 + 191 x(52)#52 + 616 x(53)#53
      + 6 x(54)#54 + 493 x(55)#55 + 308 x(56)#56 + 33 x(57)#57 + 183 x(58)#58
      + 776 x(59)#59 + 932 x(60)#60 + 356 x(61)#61 + 879 x(62)#62
      + 384 x(63)#63 + 458 x(64)#64 + 287 x(65)#65 + 29 x(66)#66 + 309 x(67)#67
      + 820 x(68)#68 + 458 x(69)#69 + 415 x(70)#70 + 340 x(71)#71
      + 185 x(72)#72 + 401 x(73)#73 + 598 x(74)#74 + 737 x(75)#75
      + 246 x(76)#76 + 716 x(77)#77 + 767 x(78)#78 + 991 x(79)#79
      + 503 x(80)#80 + 816 x(81)#81 + 622 x(82)#82 + 635 x(83)#83
      + 214 x(84)#84 + 355 x(85)#85 + 929 x(86)#86 + 276 x(87)#87 + 93 x(88)#88
      + 50 x(89)#89 + 189 x(90)#90 + 395 x(91)#91 + 363 x(92)#92 + 347 x(93)#93
      + 267 x(94)#94 + 66 x(95)#95 + 392 x(96)#96 + 57 x(97)#97 + 199 x(98)#98
      + 350 x(99)#99 <= 11692
 c9:  744 x(0)#0 + 27 x(1)#1 + 118 x(2)#2 + 692 x(3)#3 + 434 x(4)#4 + 99 x(5)#5
      + 950 x(6)#6 + 797 x(7)#7 + 726 x(8)#8 + 688 x(9)#9 + 755 x(10)#10
      + 769 x(11)#11 + 136 x(12)#12 + 363 x(13)#13 + 5 x(14)#14 + 68 x(15)#15
      + 271 x(16)#16 + 305 x(17)#17 + 858 x(18)#18 + 67 x(19)#19 + 20 x(20)#20
      + 29 x(21)#21 + 981 x(22)#22 + 830 x(23)#23 + 954 x(24)#24 + 706 x(25)#25
      + 291 x(26)#26 + 683 x(27)#27 + 842 x(28)#28 + 699 x(29)#29
      + 993 x(30)#30 + 421 x(31)#31 + 588 x(32)#32 + 804 x(33)#33
      + 616 x(34)#34 + 873 x(35)#35 + 821 x(36)#36 + 117 x(37)#37
      + 628 x(38)#38 + 733 x(39)#39 + 203 x(40)#40 + 873 x(41)#41
      + 439 x(42)#42 + 414 x(43)#43 + 842 x(44)#44 + 554 x(45)#45
      + 816 x(46)#46 + 888 x(47)#47 + 555 x(48)#48 + 58 x(49)#49 + 202 x(50)#50
      + 172 x(51)#51 + 793 x(52)#52 + 650 x(53)#53 + 150 x(54)#54
      + 696 x(55)#55 + 148 x(56)#56 + 763 x(57)#57 + 177 x(58)#58 + 34 x(59)#59
      + 745 x(60)#60 + 606 x(61)#61 + 875 x(62)#62 + 75 x(63)#63 + 311 x(64)#64
      + 964 x(65)#65 + 524 x(66)#66 + 827 x(67)#67 + 626 x(68)#68
      + 292 x(69)#69 + 935 x(70)#70 + 840 x(71)#71 + 38 x(72)#72 + 800 x(73)#73
      + 564 x(74)#74 + 982 x(75)#75 + 587 x(76)#76 + 326 x(77)#77
      + 614 x(78)#78 + 477 x(79)#79 + 99 x(80)#80 + 607 x(81)#81 + 713 x(82)#82
      + 102 x(83)#83 + 572 x(84)#84 + 218 x(85)#85 + 553 x(86)#86
      + 507 x(87)#87 + 222 x(88)#88 + 14 x(89)#89 + 723 x(90)#90 + 433 x(91)#91
      + 27 x(92)#92 + 953 x(93)#93 + 268 x(94)#94 + 990 x(95)#95 + 18 x(96)#96
      + 780 x(97)#97 + 35 x(98)#98 + 402 x(99)#99 <= 12793
 c10: 890 x(0)#0 + 786 x(1)#1 + 512 x(2)#2 + 776 x(3)#3 + 430 x(4)#4
      + 396 x(5)#5 + 57 x(6)#6 + 505 x(7)#7 + 493 x(8)#8 + 863 x(9)#9
      + 456 x(10)#10 + 44 x(11)#11 + 542 x(12)#12 + 576 x(13)#13 + 790 x(14)#14
      + 112 x(15)#15 + 206 x(16)#16 + 748 x(17)#17 + 542 x(18)#18
      + 829 x(19)#19 + 297 x(20)#20 + 122 x(21)#21 + 146 x(22)#22
      + 398 x(23)#23 + 306 x(24)#24 + 701 x(25)#25 + 397 x(26)#26
      + 207 x(27)#27 + 347 x(28)#28 + 763 x(29)#29 + 989 x(30)#30
      + 494 x(31)#31 + 267 x(32)#32 + 543 x(33)#33 + 191 x(34)#34 + 91 x(35)#35
      + 883 x(36)#36 + 62 x(37)#37 + 191 x(38)#38 + 759 x(39)#39 + 903 x(40)#40
      + 131 x(41)#41 + 198 x(42)#42 + 926 x(43)#43 + 292 x(44)#44
      + 523 x(45)#45 + 714 x(46)#46 + 667 x(47)#47 + 461 x(48)#48
      + 577 x(49)#49 + 733 x(50)#50 + 128 x(51)#51 + 262 x(52)#52
      + 151 x(53)#53 + 309 x(54)#54 + 658 x(55)#55 + 653 x(56)#56
      + 129 x(57)#57 + 214 x(58)#58 + 590 x(59)#59 + 244 x(60)#60
      + 289 x(61)#61 + 338 x(62)#62 + 671 x(63)#63 + 407 x(64)#64 + 58 x(65)#65
      + 603 x(66)#66 + 626 x(67)#67 + 973 x(68)#68 + 61 x(69)#69 + 350 x(70)#70
      + 960 x(71)#71 + 849 x(72)#72 + 189 x(73)#73 + 192 x(74)#74 + 49 x(75)#75
      + 597 x(76)#76 + 947 x(77)#77 + 645 x(78)#78 + 208 x(79)#79 + 99 x(80)#80
      + 128 x(81)#81 + 773 x(82)#82 + 458 x(83)#83 + 612 x(84)#84
      + 334 x(85)#85 + 421 x(86)#86 + 454 x(87)#87 + 292 x(88)#88
      + 997 x(89)#89 + 935 x(90)#90 + 132 x(91)#91 + 28 x(92)#92 + 671 x(93)#93
      + 217 x(94)#94 + 245 x(95)#95 + 877 x(96)#96 + 75 x(97)#97 + 877 x(98)#98
      + 118 x(99)#99 <= 11481
Bounds
 0 <= x(0)#0 <= 1
 0 <= x(1)#1 <= 1
 0 <= x(2)#2 <= 1
 0 <= x(3)#3 <= 1
 0 <= x(4)#4 <= 1
 0 <= x(5)#5 <= 1
 0 <= x(6)#6 <= 1
 0 <= x(7)#7 <= 1
 0 <= x(8)#8 <= 1
 0 <= x(9)#9 <= 1
 0 <= x(10)#10 <= 1
 0 <= x(11)#11 <= 1
 0 <= x(12)#12 <= 1
 0 <= x(13)#13 <= 1
 0 <= x(14)#14 <= 1
 0 <= x(15)#15 <= 1
 0 <= x(16)#16 <= 1
 0 <= x(17)#17 <= 1
 0 <= x(18)#18 <= 1
 0 <= x(19)#19 <= 1
 0 <= x(20)#20 <= 1
 0 <= x(21)#21 <= 1
 0 <= x(22)#22 <= 1
 0 <= x(23)#23 <= 1
 0 <= x(24)#24 <= 1
 0 <= x(25)#25 <= 1
 0 <= x(26)#26 <= 1
 0 <= x(27)#27 <= 1
 0 <= x(28)#28 <= 1
 0 <= x(29)#29 <= 1
 0 <= x(30)#30 <= 1
 0 <= x(31)#31 <= 1
 0 <= x(32)#32 <= 1
 0 <= x(33)#33 <= 1
 0 <= x(34)#34 <= 1
 0 <= x(35)#35 <= 1
 0 <= x(36)#36 <= 1
 0 <= x(37)#37 <= 1
 0 <= x(38)#38 <= 1
 0 <= x(39)#39 <= 1
 0 <= x(40)#40 <= 1
 0 <= x(41)#41 <= 1
 0 <= x(42)#42 <= 1
 0 <= x(43)#43 <= 1
 0 <= x(44)#44 <= 1
 0 <= x(45)#45 <= 1
 0 <= x(46)#46 <= 1
 0 <= x(47)#47 <= 1
 0 <= x(48)#48 <= 1
 0 <= x(49)#49 <= 1
 0 <= x(50)#50 <= 1
 0 <= x(51)#51 <= 1
 0 <= x(52)#52 <= 1
 0 <= x(53)#53 <= 1
 0 <= x(54)#54 <= 1
 0 <= x(55)#55 <= 1
 0 <= x(56)#56 <= 1
 0 <= x(57)#57 <= 1
 0 <= x(58)#58 <= 1
 0 <= x(59)#59 <= 1
 0 <= x(60)#60 <= 1
 0 <= x(61)#61 <= 1
 0 <= x(62)#62 <= 1
 0 <= x(63)#63 <= 1
 0 <= x(64)#64 <= 1
 0 <= x(65)#65 <= 1
 0 <= x(66)#66 <= 1
 0 <= x(67)#67 <= 1
 0 <= x(68)#68 <= 1
 0 <= x(69)#69 <= 1
 0 <= x(70)#70 <= 1
 0 <= x(71)#71 <= 1
 0 <= x(72)#72 <= 1
 0 <= x(73)#73 <= 1
 0 <= x(74)#74 <= 1
 0 <= x(75)#75 <= 1
 0 <= x(76)#76 <= 1
 0 <= x(77)#77 <= 1
 0 <= x(78)#78 <= 1
 0 <= x(79)#79 <= 1
 0 <= x(80)#80 <= 1
 0 <= x(81)#81 <= 1
 0 <= x(82)#82 <= 1
 0 <= x(83)#83 <= 1
 0 <= x(84)#84 <= 1
 0 <= x(85)#85 <= 1
 0 <= x(86)#86 <= 1
 0 <= x(87)#87 <= 1
 0 <= x(88)#88 <= 1
 0 <= x(89)#89 <= 1
 0 <= x(90)#90 <= 1
 0 <= x(91)#91 <= 1
 0 <= x(92)#92 <= 1
 0 <= x(93)#93 <= 1
 0 <= x(94)#94 <= 1
 0 <= x(95)#95 <= 1
 0 <= x(96)#96 <= 1
 0 <= x(97)#97 <= 1
 0 <= x(98)#98 <= 1
 0 <= x(99)#99 <= 1
Generals
 x(0)#0  x(1)#1  x(2)#2  x(3)#3  x(4)#4  x(5)#5  x(6)#6  x(7)#7  x(8)#8 
 x(9)#9  x(10)#10  x(11)#11  x(12)#12  x(13)#13  x(14)#14  x(15)#15  x(16)#16 
 x(17)#17  x(18)#18  x(19)#19  x(20)#20  x(21)#21  x(22)#22  x(23)#23 
 x(24)#24  x(25)#25  x(26)#26  x(27)#27  x(28)#28  x(29)#29  x(30)#30 
 x(31)#31  x(32)#32  x(33)#33  x(34)#34  x(35)#35  x(36)#36  x(37)#37 
 x(38)#38  x(39)#39  x(40)#40  x(41)#41  x(42)#42  x(43)#43  x(44)#44 
 x(45)#45  x(46)#46  x(47)#47  x(48)#48  x(49)#49  x(50)#50  x(51)#51 
 x(52)#52  x(53)#53  x(54)#54  x(55)#55  x(56)#56  x(57)#57  x(58)#58 
 x(59)#59  x(60)#60  x(61)#61  x(62)#62  x(63)#63  x(64)#64  x(65)#65 
 x(66)#66  x(67)#67  x(68)#68  x(69)#69  x(70)#70  x(71)#71  x(72)#72 
 x(73)#73  x(74)#74  x(75)#75  x(76)#76  x(77)#77  x(78)#78  x(79)#79 
 x(80)#80  x(81)#81  x(82)#82  x(83)#83  x(84)#84  x(85)#85  x(86)#86 
 x(87)#87  x(88)#88  x(89)#89  x(90)#90  x(91)#91  x(92)#92  x(93)#93 
 x(94)#94  x(95)#95  x(96)#96  x(97)#97  x(98)#98  x(99)#99 
End
